Version identifier: 20.1.0.0 | 2020-11-10 | 9bedb6d68
Tried aggregator 2 times.
MIP Presolve eliminated 1330 rows and 721 columns.
MIP Presolve modified 3224 coefficients.
Aggregator did 148 substitutions.
Reduced MIP has 1871 rows, 1486 columns, and 6170 nonzeros.
Reduced MIP has 318 binaries, 1168 generals, 0 SOSs, and 0 indicators.
Presolve time = 0.02 sec. (7.66 ticks)
Found incumbent of value 3632.000000 after 0.04 sec. (15.30 ticks)
Probing fixed 40 vars, tightened 364 bounds.
Probing time = 0.00 sec. (1.34 ticks)
Tried aggregator 2 times.
Detecting symmetries...
MIP Presolve eliminated 820 rows and 76 columns.
MIP Presolve modified 173 coefficients.
Aggregator did 26 substitutions.
Reduced MIP has 1025 rows, 1384 columns, and 3432 nonzeros.
Reduced MIP has 400 binaries, 984 generals, 0 SOSs, and 0 indicators.
Presolve time = 0.01 sec. (4.96 ticks)
Probing time = 0.00 sec. (0.36 ticks)
Clique table members: 125.
MIP emphasis: balance optimality and feasibility.
MIP search method: dynamic search.
Parallel mode: deterministic, using up to 24 threads.
Root relaxation solution time = 0.01 sec. (3.20 ticks)

        Nodes                                         Cuts/
   Node  Left     Objective  IInf  Best Integer    Best Bound    ItCnt     Gap

*     0+    0                         3632.0000        0.0000           100.00%
*     0+    0                           79.0000        0.0000           100.00%
      0     0        0.0000    48       79.0000        0.0000      363  100.00%
      0     0        0.0000    36       79.0000     Cuts: 123      434  100.00%
*     0+    0                           39.0000        0.0000           100.00%
      0     0        0.0000    53       39.0000      Cuts: 68      781  100.00%
      0     0        0.0000    41       39.0000      Cuts: 74      894  100.00%
      0     0        0.0000    44       39.0000      Cuts: 35     1010  100.00%
*     0+    0                           37.0000        0.0000           100.00%
*     0+    0                           34.0000        0.0000           100.00%
*     0+    0                           16.0000        0.0000           100.00%
      0     0        cutoff             16.0000       16.0000     1010    0.00%
Elapsed time = 0.85 sec. (138.07 ticks, tree = 0.01 MB, solutions = 6)

Cover cuts applied:  5
Implied bound cuts applied:  61
Flow cuts applied:  1
Mixed integer rounding cuts applied:  16
Zero-half cuts applied:  37
Lift and project cuts applied:  9
Gomory fractional cuts applied:  11

Root node processing (before b&c):
  Real time             =    0.85 sec. (138.23 ticks)
Parallel b&c, 24 threads:
  Real time             =    0.00 sec. (0.00 ticks)
  Sync time (average)   =    0.00 sec.
  Wait time (average)   =    0.00 sec.
                          ------------
Total (root+branch&cut) =    0.85 sec. (138.23 ticks)

Solution status = Optimal
Solution LB = 16
Solution UB = 16
Runtime = 0.858102 seconds
	Command being timed: "/home/min/git_repos/CS598MEBProject/CNT-ILP/build/cnt -s 2 ./output/k8_n20/simC_c1_k8_n20_u2_s3_del04.input-right.cnp"
	User time (seconds): 11.51
	System time (seconds): 0.11
	Percent of CPU this job got: 1310%
	Elapsed (wall clock) time (h:mm:ss or m:ss): 0:00.88
	Average shared text size (kbytes): 0
	Average unshared data size (kbytes): 0
	Average stack size (kbytes): 0
	Average total size (kbytes): 0
	Maximum resident set size (kbytes): 108084
	Average resident set size (kbytes): 0
	Major (requiring I/O) page faults: 0
	Minor (reclaiming a frame) page faults: 24141
	Voluntary context switches: 5367
	Involuntary context switches: 1693
	Swaps: 0
	File system inputs: 0
	File system outputs: 16
	Socket messages sent: 0
	Socket messages received: 0
	Signals delivered: 0
	Page size (bytes): 4096
	Exit status: 0
